
numDies = 20; % numero de dies
m = 3; % num linacs
s = 8; % num sessions per pacient
p = 45; % num pacients
tolerancia = 3; % diferencia maxima diaSesio i separacio
solicitud = 14; % dies maxims fins primera visita

disponible = [|  3,  3,  3,  3,  3, 15,  3, 14, 16, 12, 32, 32, 28, 27, 26, 49, 49, 49, 49, 49
              |  3,  3,  3, 12,  4, 17, 13, 19, 18, 22, 33, 37, 30, 37, 42, 49, 49, 49, 49, 49
              |  6,  3,  4, 14, 12, 28, 20, 21, 19, 23, 36, 38, 30, 41, 43, 49, 49, 49, 49, 49 |]; % capacitat de cada linac

duracio = [| 2, 2, 2, 2, 2, 2, 2, 2
            | 2, 2, 2, 2, 2, 2, 2, 2
            | 2, 2, 2, 2, 2, 2, 2, 2
            | 2, 2, 2, 2, 2, 2, 2, 2
            | 2, 2, 2, 2, 2, 2, 2, 2
            | 2, 2, 2, 2, 2, 2, 2, 2
            | 2, 2, 2, 2, 2, 2, 2, 2
            | 2, 2, 2, 2, 2, 2, 2, 2
            | 2, 2, 2, 2, 2, 2, 2, 2
            | 2, 2, 2, 2, 2, 2, 2, 2
            | 2, 2, 2, 2, 2, 2, 2, 2
            | 2, 2, 2, 2, 2, 2, 2, 2
            | 2, 2, 2, 2, 2, 2, 2, 2
            | 2, 2, 2, 2, 2, 2, 2, 2
            | 2, 2, 2, 2, 2, 3, 3, 3
            | 2, 2, 2, 2, 2, 3, 3, 3
            | 2, 2, 2, 2, 2, 3, 3, 3
            | 2, 2, 2, 2, 2, 3, 3, 3
            | 2, 2, 2, 2, 2, 3, 3, 3
            | 2, 2, 2, 2, 2, 3, 3, 3
            | 2, 2, 2, 2, 2, 3, 3, 3
            | 2, 2, 2, 2, 2, 3, 3, 3
            | 2, 2, 2, 2, 2, 3, 3, 3
            | 2, 2, 2, 2, 2, 3, 3, 3
            | 3, 3, 3, 3, 3, 2, 2, 2
            | 3, 3, 3, 3, 3, 2, 2, 2
            | 3, 3, 3, 3, 3, 2, 2, 2
            | 3, 3, 3, 3, 3, 2, 2, 2
            | 3, 3, 3, 3, 3, 2, 2, 2
            | 3, 3, 3, 3, 3, 2, 2, 2
            | 3, 3, 3, 3, 3, 2, 2, 2
            | 3, 3, 3, 3, 3, 2, 2, 2
            | 3, 3, 3, 3, 3, 3, 3, 3
            | 3, 3, 3, 3, 3, 3, 3, 3
            | 3, 3, 3, 3, 3, 3, 3, 3
            | 3, 3, 3, 3, 3, 3, 3, 3
            | 3, 3, 3, 3, 3, 3, 3, 3
            | 3, 3, 3, 3, 3, 3, 3, 3
            | 3, 3, 3, 3, 3, 3, 3, 3
            | 3, 3, 3, 3, 3, 3, 3, 3
            | 3, 3, 3, 3, 3, 3, 3, 3
            | 3, 3, 3, 3, 3, 3, 3, 3
            | 3, 3, 3, 3, 3, 3, 3, 3
            | 3, 3, 3, 3, 3, 3, 3, 3
            | 3, 3, 3, 3, 3, 3, 3, 3 |]; % duracion de la sesion (2 o 3 instants de temps)(30 o 45 mins)

separacio = [| 3, 1, 3, 1, 1, 2, 2
              | 3, 1, 3, 1, 1, 2, 2
              | 1, 2, 1, 2, 1, 2, 2
              | 3, 1, 3, 1, 1, 2, 2
              | 3, 1, 3, 1, 1, 2, 2
              | 3, 1, 3, 1, 1, 2, 2
              | 3, 1, 3, 1, 1, 2, 2
              | 3, 1, 3, 1, 1, 2, 2
              | 3, 1, 3, 1, 1, 2, 2
              | 3, 1, 3, 1, 1, 2, 2
              | 3, 1, 3, 1, 1, 2, 2
              | 3, 1, 3, 1, 1, 2, 2
              | 3, 1, 3, 1, 1, 2, 2
              | 3, 1, 3, 1, 1, 2, 2
              | 3, 1, 3, 1, 1, 2, 2
              | 3, 1, 3, 1, 1, 2, 2
              | 1, 2, 1, 2, 1, 2, 2
              | 1, 2, 1, 2, 1, 2, 2
              | 1, 2, 1, 2, 1, 2, 2
              | 1, 2, 1, 2, 1, 2, 2
              | 1, 2, 1, 2, 1, 2, 2
              | 1, 2, 1, 2, 1, 2, 2
              | 1, 2, 1, 2, 1, 2, 2
              | 1, 2, 1, 2, 1, 2, 2
              | 1, 2, 1, 2, 1, 2, 2
              | 1, 2, 1, 2, 1, 2, 2
              | 3, 1, 3, 1, 1, 2, 2
              | 3, 1, 3, 1, 1, 2, 2
              | 3, 1, 3, 1, 1, 2, 2
              | 3, 1, 3, 1, 1, 2, 2
              | 3, 1, 3, 1, 1, 2, 2
              | 3, 1, 3, 1, 1, 2, 2
              | 1, 2, 1, 2, 1, 2, 2
              | 1, 2, 1, 2, 1, 2, 2
              | 3, 1, 3, 1, 1, 2, 2
              | 3, 1, 3, 1, 1, 2, 2
              | 3, 1, 3, 1, 1, 2, 2
              | 1, 2, 1, 2, 1, 2, 2
              | 1, 2, 1, 2, 1, 2, 2
              | 1, 2, 1, 2, 1, 2, 2
              | 3, 1, 3, 1, 1, 2, 2
              | 3, 1, 3, 1, 1, 2, 2
              | 3, 1, 3, 1, 1, 2, 2
              | 3, 1, 3, 1, 1, 2, 2
              | 3, 1, 3, 1, 1, 2, 2 |]; % separacio ideal entre sesions 

grup = [1, 1, 2, 3, 3, 3, 3, 3, 3, 3, 3, 3, 3, 3, 4, 4, 5, 5, 5, 5, 5, 5, 5, 5, 5, 5, 6, 7, 7, 7, 7, 7, 8, 8, 9, 9, 9, 10, 10, 10, 11, 11, 11, 11, 11]; % pacients amb mateix grup son identics